#name

! B97-3c Opt Freq PAL8
		
%geom
	maxiter 1000
end
		
* xyz 0 1
#
*
