#name

! Opt GFN2-xTB TightSCF Numfreq PAL8

%geom
  maxiter 5000
end

* xyz 0 1
#
*
