#name

! wB97X-D3BJ def2-TZVPP def2/J RIJCOSX DEFGRID3
! Opt Freq TightOPT TightSCF

%pal
  nprocs 8
end

%geom
  maxiter 500
end

* xyz 0 1
#
*
