#name

! Native-GFN2-xTB
! Opt Numfreq TightSCF

%pal
  nprocs 8
end

%maxcore 3000

%geom
  maxiter 5000
  TolE 1e-8
  TolRMSG 1e-5
  TolMaxG 3e-5
  Trust 0.3
  MaxStep 0.3
end

* xyz 0 1
#
*
