!name

%nprocshared=8
%mem=16GB
# wB97XD/6-31+G(d) Opt=Cartesian Freq DensityFit iop(1/152=2000,1/6=2000)

Water Hexamer

0 1
!

